StudentsNr = 10;
InstructorsNr = 37;
DaysNr = 1;
SlotsPerDay = 15;
AvailabilitySlotsLenght = 1;
RoomNr = 1;
ProgrammNr = 2;
DegreeNr = 3;
RolesNr = 4;
CoursesNr = 3;
InstructorsProgramm = [{1}, {1, 2}, {1, 2}, {1, 2}, {2}, {1, 2}, {1, 2}, {2}, {2}, {2}, {1, 2}, {2}, {2}, {1}, {1, 2}, {1, 2}, {2}, {1}, {2}, {1}, {2}, {2}, {1}, {1, 2}, {2}, {1}, {1}, {1, 2}, {1, 2}, {1}, {1}, {1}, {1}, {1}, {1}, {1, 2}, {1, 2}];
InstructorRolesPerProgramm = [|{2, 3, 6, 7, 11, 15, 16, 23, 24, 28, 37}, {2, 6, 7, 15, 20, 23, 35, 37}, {2, 23, 24, 35}, {4, 7, 11, 24, 27, 28, 34, 36, 37}|{2, 3, 5, 6, 7, 11, 15, 16, 22, 24, 28, 37}, {2, 5, 6, 7, 10, 15, 21, 22, 37}, {2, 5, 8, 9, 10, 12, 13, 21, 22, 24, 25}, {4, 5, 7, 8, 9, 10, 11, 12, 13, 19, 24, 25, 28, 36, 37}|];
InstructorsAvailability = [|0, 1, 1, 1, 1, 1, 0, 1, 0, 1, 1, 1, 1, 1, 1, |1, 1, 1, 1, 1, 1, 1, 1, 1, 1, 1, 0, 1, 0, 0, |0, 0, 0, 0, 0, 0, 0, 1, 1, 1, 1, 0, 1, 1, 0, |1, 1, 1, 1, 1, 1, 0, 1, 1, 1, 1, 1, 0, 1, 1, |1, 1, 1, 1, 1, 1, 1, 1, 1, 1, 1, 1, 1, 1, 1, |1, 1, 0, 1, 0, 0, 1, 1, 1, 1, 1, 1, 1, 1, 1, |1, 1, 1, 1, 1, 1, 1, 1, 1, 1, 1, 1, 1, 1, 1, |1, 1, 1, 1, 0, 1, 1, 1, 1, 1, 1, 1, 1, 1, 1, |1, 1, 1, 1, 1, 1, 1, 1, 1, 1, 0, 1, 1, 1, 0, |1, 1, 0, 1, 1, 1, 1, 1, 1, 1, 1, 1, 1, 1, 1, |0, 0, 1, 1, 1, 1, 1, 1, 1, 1, 1, 1, 1, 1, 0, |1, 1, 1, 1, 1, 1, 1, 1, 1, 0, 1, 0, 0, 1, 1, |0, 1, 1, 1, 1, 0, 0, 0, 0, 1, 1, 1, 0, 0, 0, |0, 0, 1, 1, 1, 0, 1, 1, 1, 1, 1, 1, 1, 1, 1, |1, 1, 1, 0, 1, 1, 1, 1, 1, 1, 1, 1, 1, 1, 1, |1, 1, 1, 0, 1, 1, 1, 1, 0, 0, 1, 0, 0, 0, 0, |0, 0, 0, 1, 1, 1, 1, 1, 1, 1, 1, 0, 0, 0, 1, |1, 1, 1, 1, 1, 1, 1, 1, 1, 1, 1, 1, 1, 1, 1, |1, 1, 0, 1, 1, 1, 1, 1, 1, 1, 1, 1, 1, 1, 1, |1, 1, 1, 1, 1, 1, 1, 1, 1, 1, 1, 1, 1, 1, 1, |0, 0, 1, 1, 1, 1, 1, 1, 1, 1, 1, 1, 1, 1, 1, |0, 0, 1, 0, 0, 1, 1, 0, 1, 0, 0, 1, 1, 1, 1, |1, 1, 1, 0, 1, 1, 1, 1, 1, 1, 1, 1, 1, 1, 1, |0, 1, 1, 1, 1, 1, 1, 1, 1, 1, 0, 1, 1, 1, 1, |0, 0, 0, 1, 1, 1, 1, 1, 1, 1, 1, 1, 1, 1, 1, |0, 1, 1, 1, 1, 1, 1, 1, 1, 1, 1, 1, 1, 1, 1, |0, 1, 1, 1, 1, 0, 0, 0, 0, 1, 1, 0, 0, 1, 1, |1, 1, 1, 0, 0, 1, 1, 1, 1, 1, 1, 1, 1, 1, 1, |1, 1, 0, 1, 1, 1, 0, 1, 0, 1, 1, 1, 1, 1, 1, |0, 0, 0, 0, 1, 1, 1, 1, 1, 1, 1, 1, 1, 1, 1, |0, 1, 1, 0, 1, 1, 1, 1, 1, 1, 1, 0, 1, 1, 1, |0, 0, 1, 1, 1, 1, 1, 1, 1, 1, 1, 1, 0, 1, 1, |1, 1, 1, 1, 1, 1, 1, 1, 1, 0, 1, 1, 1, 1, 1, |0, 0, 0, 0, 0, 1, 1, 0, 1, 1, 1, 1, 0, 1, 1, |0, 1, 1, 1, 1, 1, 1, 1, 1, 1, 1, 1, 0, 1, 1, |1, 1, 1, 1, 1, 1, 1, 1, 0, 1, 1, 0, 1, 1, 1, |1, 1, 1, 1, 1, 1, 1, 1, 1, 1, 1, 1, 1, 0, 1|];
StudentsProgramm = [1, 2, 1, 1, 2, 1, 2, 2, 1, 1];
StudentsDegree = [2, 2, 3, 3, 2, 3, 3, 1, 3, 2];
StudentsSupervisorId = [24, 4, 15, 14, 21, 2, 5, 24, 20, 31];
StudentsCourseIds = [{1, 3}, {1, 2}, {}, {}, {1, 3}, {}, {}, {3}, {}, {1, 3}];
StudentsAvailability = [|1, 1, 1, 1, 1, 1, 1, 1, 1, 0, 0, 1, 1, 1, 0, |0, 0, 0, 0, 0, 1, 1, 1, 1, 1, 1, 1, 1, 1, 1, |0, 0, 0, 0, 1, 1, 1, 1, 0, 0, 1, 0, 0, 0, 0, |0, 0, 1, 1, 1, 1, 1, 1, 1, 1, 1, 1, 1, 1, 1, |1, 0, 0, 0, 1, 1, 0, 1, 0, 0, 1, 1, 1, 1, 0, |0, 0, 1, 1, 1, 1, 1, 1, 1, 1, 1, 1, 1, 1, 1, |0, 0, 0, 0, 0, 0, 1, 1, 1, 1, 1, 1, 1, 1, 1, |1, 1, 1, 0, 0, 0, 1, 1, 1, 1, 0, 0, 1, 1, 1, |1, 1, 0, 1, 1, 1, 1, 1, 1, 0, 1, 1, 1, 1, 1, |1, 1, 1, 1, 1, 1, 1, 0, 1, 1, 1, 1, 1, 1, 1|];
TheoryticalMinCard = [0, 0, 0, 1, 0, 0, 0, 0, 0, 1];
CoursesInstructorIds = [{5, 17, 20, 28, 37}, {1, 5, 7, 11, 17, 19, 21, 24, 32, 34}, {1, 2, 8, 9, 10, 11, 12, 14, 15, 18, 20, 21, 23, 24, 25, 26, 27, 35, 36, 37}];
RolesDemands = [2, 5, 1, 3];
RolesContinuity = [];
ExamLen = [2, 2, 2, 2, 2, 2, 2, 1, 2, 2];
LunchTsMinLen = 0;
LunchStarts = [5..10];
SupervisorAvailable = 0;
OptimalLunchLenght = [1, 1];
OptimalStartTs = [1, 0];
OptimalFinishTs = [1, 15];
MinimizeRooms = 400;
RolesSoftContinuity = [|1, 2, 3, 4|4, 2, 4, 1|];
SameDegreeInRoom = 0;
Mergeability = 0;
